173	32	4	74	
10	10	10	10

0	0	0	0	0	0	15	1	2	3	4	5	6	7	8	9	10	11	12	13	14	15
1	0	1	1	1	8	9	25	24	23	22	21	20	19	17	16
2	1	3	0	4	9	9	25	24	23	22	21	20	19	18	16
3	4	3	0	3	10	9	25	24	23	22	21	20	19	17	16
4	3	5	5	0	8	9	25	23	22	21	20	19	18	17	16
5	4	0	3	4	1	9	25	24	23	22	21	20	18	17	16
6	2	3	0	2	7	8	24	23	21	20	19	18	17	16
7	8	4	5	0	8	8	25	23	22	21	20	18	17	16
8	3	0	3	2	6	8	24	23	22	21	20	19	18	16
9	5	5	0	4	9	8	25	24	22	21	20	19	17	16
10	3	0	4	7	9	8	23	22	21	20	19	18	17	16
11	7	0	5	6	5	7	25	24	23	21	20	17	16
12	5	4	5	0	1	7	24	23	22	21	18	17	16
13	3	4	7	0	1	7	24	22	21	20	18	17	16
14	2	5	0	4	2	6	25	24	22	20	19	16
15	6	7	3	0	6	6	25	22	20	18	17	16
16	6	0	3	6	6	5	30	29	28	27	26
17	7	5	0	6	4	5	30	29	28	27	26
18	6	6	0	2	5	5	30	29	28	27	26
19	3	2	0	5	10	5	30	29	28	27	26
20	4	6	5	0	8	4	30	28	27	26
21	3	2	0	7	6	4	30	29	28	26
22	3	6	6	0	2	4	29	28	27	26
23	0	3	3	6	1	4	30	28	27	26
24	3	4	4	0	10	4	29	28	27	26
25	5	4	4	0	8	3	29	27	26
26	5	4	0	5	5	1	31
27	4	0	2	4	3	1	31
28	3	5	0	1	10	1	31
29	1	2	0	4	1	1	31
30	3	3	0	1	4	1	31
31	0	0	0	0	0	0
